\ Model SubProblem
\ LP format - for model browsing. Use MPS format to capture full model detail.
Maximize
  0.1273622222222157 q[0] + 0.1573938356164373 q[1] + 111.111 q[2]
   + 0.104440472311979 q[3] + 0 tl[9] + 0 ta[0] - ta[9]
Subject To
 start_point: x[0,0] + x[0,1] + x[0,2] + x[0,3] + x[0,4] + x[0,5] + x[0,6]
   + x[0,7] + x[0,8] + x[0,9] = 1
 flow_balance: - x[0,1] + x[1,0] + x[1,2] + x[1,3] + x[1,4] + x[1,5]
   + x[1,6] + x[1,7] + x[1,8] + x[1,9] - x[2,1] - x[3,1] - x[4,1] - x[5,1]
   - x[6,1] - x[7,1] - x[8,1] - x[9,1] = 0
 flow_balance: - x[0,2] - x[1,2] + x[2,0] + x[2,1] + x[2,3] + x[2,4]
   + x[2,5] + x[2,6] + x[2,7] + x[2,8] + x[2,9] - x[3,2] - x[4,2] - x[5,2]
   - x[6,2] - x[7,2] - x[8,2] - x[9,2] = 0
 flow_balance: - x[0,3] - x[1,3] - x[2,3] + x[3,0] + x[3,1] + x[3,2]
   + x[3,4] + x[3,5] + x[3,6] + x[3,7] + x[3,8] + x[3,9] - x[4,3] - x[5,3]
   - x[6,3] - x[7,3] - x[8,3] - x[9,3] = 0
 flow_balance: - x[0,4] - x[1,4] - x[2,4] - x[3,4] + x[4,0] + x[4,1]
   + x[4,2] + x[4,3] + x[4,5] + x[4,6] + x[4,7] + x[4,8] + x[4,9] - x[5,4]
   - x[6,4] - x[7,4] - x[8,4] - x[9,4] = 0
 flow_balance: - x[0,5] - x[1,5] - x[2,5] - x[3,5] - x[4,5] + x[5,0]
   + x[5,1] + x[5,2] + x[5,3] + x[5,4] + x[5,6] + x[5,7] + x[5,8] + x[5,9]
   - x[6,5] - x[7,5] - x[8,5] - x[9,5] = 0
 flow_balance: - x[0,6] - x[1,6] - x[2,6] - x[3,6] - x[4,6] - x[5,6]
   + x[6,0] + x[6,1] + x[6,2] + x[6,3] + x[6,4] + x[6,5] + x[6,7] + x[6,8]
   + x[6,9] - x[7,6] - x[8,6] - x[9,6] = 0
 flow_balance: - x[0,7] - x[1,7] - x[2,7] - x[3,7] - x[4,7] - x[5,7]
   - x[6,7] + x[7,0] + x[7,1] + x[7,2] + x[7,3] + x[7,4] + x[7,5] + x[7,6]
   + x[7,8] + x[7,9] - x[8,7] - x[9,7] = 0
 flow_balance: - x[0,8] - x[1,8] - x[2,8] - x[3,8] - x[4,8] - x[5,8]
   - x[6,8] - x[7,8] + x[8,0] + x[8,1] + x[8,2] + x[8,3] + x[8,4] + x[8,5]
   + x[8,6] + x[8,7] + x[8,9] - x[9,8] = 0
 end_point: x[0,9] + x[1,9] + x[2,9] + x[3,9] + x[4,9] + x[5,9] + x[6,9]
   + x[7,9] + x[8,9] + x[9,9] = 1
 visit_1[0]: x[0,0] + x[0,1] + x[0,2] + x[0,3] + x[0,4] + x[0,5] + x[0,6]
   + x[0,7] + x[0,8] + x[0,9] <= 1
 visit_1[1]: x[1,0] + x[1,1] + x[1,2] + x[1,3] + x[1,4] + x[1,5] + x[1,6]
   + x[1,7] + x[1,8] + x[1,9] <= 1
 visit_1[2]: x[2,0] + x[2,1] + x[2,2] + x[2,3] + x[2,4] + x[2,5] + x[2,6]
   + x[2,7] + x[2,8] + x[2,9] <= 1
 visit_1[3]: x[3,0] + x[3,1] + x[3,2] + x[3,3] + x[3,4] + x[3,5] + x[3,6]
   + x[3,7] + x[3,8] + x[3,9] <= 1
 visit_1[4]: x[4,0] + x[4,1] + x[4,2] + x[4,3] + x[4,4] + x[4,5] + x[4,6]
   + x[4,7] + x[4,8] + x[4,9] <= 1
 visit_1[5]: x[5,0] + x[5,1] + x[5,2] + x[5,3] + x[5,4] + x[5,5] + x[5,6]
   + x[5,7] + x[5,8] + x[5,9] <= 1
 visit_1[6]: x[6,0] + x[6,1] + x[6,2] + x[6,3] + x[6,4] + x[6,5] + x[6,6]
   + x[6,7] + x[6,8] + x[6,9] <= 1
 visit_1[7]: x[7,0] + x[7,1] + x[7,2] + x[7,3] + x[7,4] + x[7,5] + x[7,6]
   + x[7,7] + x[7,8] + x[7,9] <= 1
 visit_1[8]: x[8,0] + x[8,1] + x[8,2] + x[8,3] + x[8,4] + x[8,5] + x[8,6]
   + x[8,7] + x[8,8] + x[8,9] <= 1
 point_circle[0]: x[0,0] = 0
 point_circle[1]: x[1,1] = 0
 point_circle[2]: x[2,2] = 0
 point_circle[3]: x[3,3] = 0
 point_circle[4]: x[4,4] = 0
 point_circle[5]: x[5,5] = 0
 point_circle[6]: x[6,6] = 0
 point_circle[7]: x[7,7] = 0
 point_circle[8]: x[8,8] = 0
 point_circle[9]: x[9,9] = 0
 order_finish: x[1,0] + x[1,1] + x[1,2] + x[1,3] + x[1,4] + x[1,5] + x[1,6]
   + x[1,7] + x[1,8] + x[1,9] - x[5,0] - x[5,1] - x[5,2] - x[5,3] - x[5,4]
   - x[5,5] - x[5,6] - x[5,7] - x[5,8] - x[5,9] = 0
 order_finish: x[2,0] + x[2,1] + x[2,2] + x[2,3] + x[2,4] + x[2,5] + x[2,6]
   + x[2,7] + x[2,8] + x[2,9] - x[6,0] - x[6,1] - x[6,2] - x[6,3] - x[6,4]
   - x[6,5] - x[6,6] - x[6,7] - x[6,8] - x[6,9] = 0
 order_finish: x[3,0] + x[3,1] + x[3,2] + x[3,3] + x[3,4] + x[3,5] + x[3,6]
   + x[3,7] + x[3,8] + x[3,9] - x[7,0] - x[7,1] - x[7,2] - x[7,3] - x[7,4]
   - x[7,5] - x[7,6] - x[7,7] - x[7,8] - x[7,9] = 0
 order_finish: x[4,0] + x[4,1] + x[4,2] + x[4,3] + x[4,4] + x[4,5] + x[4,6]
   + x[4,7] + x[4,8] + x[4,9] - x[8,0] - x[8,1] - x[8,2] - x[8,3] - x[8,4]
   - x[8,5] - x[8,6] - x[8,7] - x[8,8] - x[8,9] = 0
 R33: l[0] = 0
 load[0]: 52000 x[0,1] + q[0] + l[0] - l[1] <= 52000
 load[1]: 52000 x[1,1] + q[0] <= 52000
 load[2]: 52000 x[2,1] + q[0] - l[1] + l[2] <= 52000
 load[3]: 52000 x[3,1] + q[0] - l[1] + l[3] <= 52000
 load[4]: 52000 x[4,1] + q[0] - l[1] + l[4] <= 52000
 load[5]: 52000 x[5,1] + q[0] - l[1] + l[5] <= 52000
 load[6]: 52000 x[6,1] + q[0] - l[1] + l[6] <= 52000
 load[7]: 52000 x[7,1] + q[0] - l[1] + l[7] <= 52000
 load[8]: 52000 x[8,1] + q[0] - l[1] + l[8] <= 52000
 load[9]: 52000 x[9,1] + q[0] - l[1] + l[9] <= 52000
 load[0]: 52000 x[0,2] + q[1] + l[0] - l[2] <= 52000
 load[1]: 52000 x[1,2] + q[1] + l[1] - l[2] <= 52000
 load[2]: 52000 x[2,2] + q[1] <= 52000
 load[3]: 52000 x[3,2] + q[1] - l[2] + l[3] <= 52000
 load[4]: 52000 x[4,2] + q[1] - l[2] + l[4] <= 52000
 load[5]: 52000 x[5,2] + q[1] - l[2] + l[5] <= 52000
 load[6]: 52000 x[6,2] + q[1] - l[2] + l[6] <= 52000
 load[7]: 52000 x[7,2] + q[1] - l[2] + l[7] <= 52000
 load[8]: 52000 x[8,2] + q[1] - l[2] + l[8] <= 52000
 load[9]: 52000 x[9,2] + q[1] - l[2] + l[9] <= 52000
 load[0]: 52000 x[0,3] + q[2] + l[0] - l[3] <= 52000
 load[1]: 52000 x[1,3] + q[2] + l[1] - l[3] <= 52000
 load[2]: 52000 x[2,3] + q[2] + l[2] - l[3] <= 52000
 load[3]: 52000 x[3,3] + q[2] <= 52000
 load[4]: 52000 x[4,3] + q[2] - l[3] + l[4] <= 52000
 load[5]: 52000 x[5,3] + q[2] - l[3] + l[5] <= 52000
 load[6]: 52000 x[6,3] + q[2] - l[3] + l[6] <= 52000
 load[7]: 52000 x[7,3] + q[2] - l[3] + l[7] <= 52000
 load[8]: 52000 x[8,3] + q[2] - l[3] + l[8] <= 52000
 load[9]: 52000 x[9,3] + q[2] - l[3] + l[9] <= 52000
 load[0]: 52000 x[0,4] + q[3] + l[0] - l[4] <= 52000
 load[1]: 52000 x[1,4] + q[3] + l[1] - l[4] <= 52000
 load[2]: 52000 x[2,4] + q[3] + l[2] - l[4] <= 52000
 load[3]: 52000 x[3,4] + q[3] + l[3] - l[4] <= 52000
 load[4]: 52000 x[4,4] + q[3] <= 52000
 load[5]: 52000 x[5,4] + q[3] - l[4] + l[5] <= 52000
 load[6]: 52000 x[6,4] + q[3] - l[4] + l[6] <= 52000
 load[7]: 52000 x[7,4] + q[3] - l[4] + l[7] <= 52000
 load[8]: 52000 x[8,4] + q[3] - l[4] + l[8] <= 52000
 load[9]: 52000 x[9,4] + q[3] - l[4] + l[9] <= 52000
 R74: l[9] = 0
 unload[0]: 52000 x[0,5] - q[0] + l[0] - l[5] <= 52000
 unload[1]: 52000 x[1,5] - q[0] + l[1] - l[5] <= 52000
 unload[2]: 52000 x[2,5] - q[0] + l[2] - l[5] <= 52000
 unload[3]: 52000 x[3,5] - q[0] + l[3] - l[5] <= 52000
 unload[4]: 52000 x[4,5] - q[0] + l[4] - l[5] <= 52000
 unload[5]: 52000 x[5,5] - q[0] <= 52000
 unload[6]: 52000 x[6,5] - q[0] - l[5] + l[6] <= 52000
 unload[7]: 52000 x[7,5] - q[0] - l[5] + l[7] <= 52000
 unload[8]: 52000 x[8,5] - q[0] - l[5] + l[8] <= 52000
 unload[9]: 52000 x[9,5] - q[0] - l[5] + l[9] <= 52000
 unload[0]: 52000 x[0,6] - q[1] + l[0] - l[6] <= 52000
 unload[1]: 52000 x[1,6] - q[1] + l[1] - l[6] <= 52000
 unload[2]: 52000 x[2,6] - q[1] + l[2] - l[6] <= 52000
 unload[3]: 52000 x[3,6] - q[1] + l[3] - l[6] <= 52000
 unload[4]: 52000 x[4,6] - q[1] + l[4] - l[6] <= 52000
 unload[5]: 52000 x[5,6] - q[1] + l[5] - l[6] <= 52000
 unload[6]: 52000 x[6,6] - q[1] <= 52000
 unload[7]: 52000 x[7,6] - q[1] - l[6] + l[7] <= 52000
 unload[8]: 52000 x[8,6] - q[1] - l[6] + l[8] <= 52000
 unload[9]: 52000 x[9,6] - q[1] - l[6] + l[9] <= 52000
 unload[0]: 52000 x[0,7] - q[2] + l[0] - l[7] <= 52000
 unload[1]: 52000 x[1,7] - q[2] + l[1] - l[7] <= 52000
 unload[2]: 52000 x[2,7] - q[2] + l[2] - l[7] <= 52000
 unload[3]: 52000 x[3,7] - q[2] + l[3] - l[7] <= 52000
 unload[4]: 52000 x[4,7] - q[2] + l[4] - l[7] <= 52000
 unload[5]: 52000 x[5,7] - q[2] + l[5] - l[7] <= 52000
 unload[6]: 52000 x[6,7] - q[2] + l[6] - l[7] <= 52000
 unload[7]: 52000 x[7,7] - q[2] <= 52000
 unload[8]: 52000 x[8,7] - q[2] - l[7] + l[8] <= 52000
 unload[9]: 52000 x[9,7] - q[2] - l[7] + l[9] <= 52000
 unload[0]: 52000 x[0,8] - q[3] + l[0] - l[8] <= 52000
 unload[1]: 52000 x[1,8] - q[3] + l[1] - l[8] <= 52000
 unload[2]: 52000 x[2,8] - q[3] + l[2] - l[8] <= 52000
 unload[3]: 52000 x[3,8] - q[3] + l[3] - l[8] <= 52000
 unload[4]: 52000 x[4,8] - q[3] + l[4] - l[8] <= 52000
 unload[5]: 52000 x[5,8] - q[3] + l[5] - l[8] <= 52000
 unload[6]: 52000 x[6,8] - q[3] + l[6] - l[8] <= 52000
 unload[7]: 52000 x[7,8] - q[3] + l[7] - l[8] <= 52000
 unload[8]: 52000 x[8,8] - q[3] <= 52000
 unload[9]: 52000 x[9,8] - q[3] - l[8] + l[9] <= 52000
 capacity: - 52000 x[1,0] - 52000 x[1,1] - 52000 x[1,2] - 52000 x[1,3]
   - 52000 x[1,4] - 52000 x[1,5] - 52000 x[1,6] - 52000 x[1,7]
   - 52000 x[1,8] - 52000 x[1,9] + q[0] + l[5] <= 0
 capacity: - 52000 x[2,0] - 52000 x[2,1] - 52000 x[2,2] - 52000 x[2,3]
   - 52000 x[2,4] - 52000 x[2,5] - 52000 x[2,6] - 52000 x[2,7]
   - 52000 x[2,8] - 52000 x[2,9] + q[1] + l[6] <= 0
 capacity: - 52000 x[3,0] - 52000 x[3,1] - 52000 x[3,2] - 52000 x[3,3]
   - 52000 x[3,4] - 52000 x[3,5] - 52000 x[3,6] - 52000 x[3,7]
   - 52000 x[3,8] - 52000 x[3,9] + q[2] + l[7] <= 0
 capacity: - 52000 x[4,0] - 52000 x[4,1] - 52000 x[4,2] - 52000 x[4,3]
   - 52000 x[4,4] - 52000 x[4,5] - 52000 x[4,6] - 52000 x[4,7]
   - 52000 x[4,8] - 52000 x[4,9] + q[3] + l[8] <= 0
 R119: tl[0] >= 1008
 load_unload_time: - 5808 x[0,1] - 5808 x[1,1] - 5808 x[2,1] - 5808 x[3,1]
   - 5808 x[4,1] - 5808 x[5,1] - 5808 x[6,1] - 5808 x[7,1] - 5808 x[8,1]
   - 5808 x[9,1] + tl[1] - ta[1] >= -5808
 ltw: - 5808 x[0,1] - 5808 x[1,1] - 5808 x[2,1] - 5808 x[3,1] - 5808 x[4,1]
   - 5808 x[5,1] - 5808 x[6,1] - 5808 x[7,1] - 5808 x[8,1] - 5808 x[9,1]
   + ta[1] >= -4525
 utw: 5808 x[0,1] + 5808 x[1,1] + 5808 x[2,1] + 5808 x[3,1] + 5808 x[4,1]
   + 5808 x[5,1] + 5808 x[6,1] + 5808 x[7,1] + 5808 x[8,1] + 5808 x[9,1]
   + ta[1] <= 7235
 load_unload_time: - 5808 x[0,2] - 5808 x[1,2] - 5808 x[2,2] - 5808 x[3,2]
   - 5808 x[4,2] - 5808 x[5,2] - 5808 x[6,2] - 5808 x[7,2] - 5808 x[8,2]
   - 5808 x[9,2] + tl[2] - ta[2] >= -5808
 ltw: - 5808 x[0,2] - 5808 x[1,2] - 5808 x[2,2] - 5808 x[3,2] - 5808 x[4,2]
   - 5808 x[5,2] - 5808 x[6,2] - 5808 x[7,2] - 5808 x[8,2] - 5808 x[9,2]
   + ta[2] >= -4405
 utw: 5808 x[0,2] + 5808 x[1,2] + 5808 x[2,2] + 5808 x[3,2] + 5808 x[4,2]
   + 5808 x[5,2] + 5808 x[6,2] + 5808 x[7,2] + 5808 x[8,2] + 5808 x[9,2]
   + ta[2] <= 7379
 load_unload_time: - 5808 x[0,3] - 5808 x[1,3] - 5808 x[2,3] - 5808 x[3,3]
   - 5808 x[4,3] - 5808 x[5,3] - 5808 x[6,3] - 5808 x[7,3] - 5808 x[8,3]
   - 5808 x[9,3] + tl[3] - ta[3] >= -5808
 ltw: - 5808 x[0,3] - 5808 x[1,3] - 5808 x[2,3] - 5808 x[3,3] - 5808 x[4,3]
   - 5808 x[5,3] - 5808 x[6,3] - 5808 x[7,3] - 5808 x[8,3] - 5808 x[9,3]
   + ta[3] >= -5053
 utw: 5808 x[0,3] + 5808 x[1,3] + 5808 x[2,3] + 5808 x[3,3] + 5808 x[4,3]
   + 5808 x[5,3] + 5808 x[6,3] + 5808 x[7,3] + 5808 x[8,3] + 5808 x[9,3]
   + ta[3] <= 6707
 load_unload_time: - 5808 x[0,4] - 5808 x[1,4] - 5808 x[2,4] - 5808 x[3,4]
   - 5808 x[4,4] - 5808 x[5,4] - 5808 x[6,4] - 5808 x[7,4] - 5808 x[8,4]
   - 5808 x[9,4] + tl[4] - ta[4] >= -5808
 ltw: - 5808 x[0,4] - 5808 x[1,4] - 5808 x[2,4] - 5808 x[3,4] - 5808 x[4,4]
   - 5808 x[5,4] - 5808 x[6,4] - 5808 x[7,4] - 5808 x[8,4] - 5808 x[9,4]
   + ta[4] >= -4717
 utw: 5808 x[0,4] + 5808 x[1,4] + 5808 x[2,4] + 5808 x[3,4] + 5808 x[4,4]
   + 5808 x[5,4] + 5808 x[6,4] + 5808 x[7,4] + 5808 x[8,4] + 5808 x[9,4]
   + ta[4] <= 7139
 load_unload_time: - 5808 x[0,5] - 5808 x[1,5] - 5808 x[2,5] - 5808 x[3,5]
   - 5808 x[4,5] - 5808 x[5,5] - 5808 x[6,5] - 5808 x[7,5] - 5808 x[8,5]
   - 5808 x[9,5] + tl[5] - ta[5] >= -5808
 ltw: - 5808 x[0,5] - 5808 x[1,5] - 5808 x[2,5] - 5808 x[3,5] - 5808 x[4,5]
   - 5808 x[5,5] - 5808 x[6,5] - 5808 x[7,5] - 5808 x[8,5] - 5808 x[9,5]
   + ta[5] >= -4525
 utw: 5808 x[0,5] + 5808 x[1,5] + 5808 x[2,5] + 5808 x[3,5] + 5808 x[4,5]
   + 5808 x[5,5] + 5808 x[6,5] + 5808 x[7,5] + 5808 x[8,5] + 5808 x[9,5]
   + ta[5] <= 7968
 load_unload_time: - 5808 x[0,6] - 5808 x[1,6] - 5808 x[2,6] - 5808 x[3,6]
   - 5808 x[4,6] - 5808 x[5,6] - 5808 x[6,6] - 5808 x[7,6] - 5808 x[8,6]
   - 5808 x[9,6] + tl[6] - ta[6] >= -5808
 ltw: - 5808 x[0,6] - 5808 x[1,6] - 5808 x[2,6] - 5808 x[3,6] - 5808 x[4,6]
   - 5808 x[5,6] - 5808 x[6,6] - 5808 x[7,6] - 5808 x[8,6] - 5808 x[9,6]
   + ta[6] >= -4405
 utw: 5808 x[0,6] + 5808 x[1,6] + 5808 x[2,6] + 5808 x[3,6] + 5808 x[4,6]
   + 5808 x[5,6] + 5808 x[6,6] + 5808 x[7,6] + 5808 x[8,6] + 5808 x[9,6]
   + ta[6] <= 8712
 load_unload_time: - 5808 x[0,7] - 5808 x[1,7] - 5808 x[2,7] - 5808 x[3,7]
   - 5808 x[4,7] - 5808 x[5,7] - 5808 x[6,7] - 5808 x[7,7] - 5808 x[8,7]
   - 5808 x[9,7] + tl[7] - ta[7] >= -5808
 ltw: - 5808 x[0,7] - 5808 x[1,7] - 5808 x[2,7] - 5808 x[3,7] - 5808 x[4,7]
   - 5808 x[5,7] - 5808 x[6,7] - 5808 x[7,7] - 5808 x[8,7] - 5808 x[9,7]
   + ta[7] >= -5053
 utw: 5808 x[0,7] + 5808 x[1,7] + 5808 x[2,7] + 5808 x[3,7] + 5808 x[4,7]
   + 5808 x[5,7] + 5808 x[6,7] + 5808 x[7,7] + 5808 x[8,7] + 5808 x[9,7]
   + ta[7] <= 7296
 load_unload_time: - 5808 x[0,8] - 5808 x[1,8] - 5808 x[2,8] - 5808 x[3,8]
   - 5808 x[4,8] - 5808 x[5,8] - 5808 x[6,8] - 5808 x[7,8] - 5808 x[8,8]
   - 5808 x[9,8] + tl[8] - ta[8] >= -5808
 ltw: - 5808 x[0,8] - 5808 x[1,8] - 5808 x[2,8] - 5808 x[3,8] - 5808 x[4,8]
   - 5808 x[5,8] - 5808 x[6,8] - 5808 x[7,8] - 5808 x[8,8] - 5808 x[9,8]
   + ta[8] >= -4717
 utw: 5808 x[0,8] + 5808 x[1,8] + 5808 x[2,8] + 5808 x[3,8] + 5808 x[4,8]
   + 5808 x[5,8] + 5808 x[6,8] + 5808 x[7,8] + 5808 x[8,8] + 5808 x[9,8]
   + ta[8] <= 7968
 travel_time[0,1]: 5808 x[0,1] + tl[0] - ta[1] <= 5320.57
 travel_time[0,2]: 5808 x[0,2] + tl[0] - ta[2] <= 5345.14
 travel_time[0,3]: 5808 x[0,3] + tl[0] - ta[3] <= 5242.65
 travel_time[0,4]: 5808 x[0,4] + tl[0] - ta[4] <= 5320.57
 travel_time[0,5]: 5808 x[0,5] + tl[0] - ta[5] <= 2613.6
 travel_time[0,6]: 5808 x[0,6] + tl[0] - ta[6] <= 2613.6
 travel_time[0,7]: 5808 x[0,7] + tl[0] - ta[7] <= 2613.6
 travel_time[0,8]: 5808 x[0,8] + tl[0] - ta[8] <= 2613.6
 travel_time[0,9]: 5808 x[0,9] + tl[0] - ta[9] <= 5808
 travel_time[1,1]: 5808 x[1,1] + tl[1] - ta[1] <= 5808
 travel_time[1,2]: 5808 x[1,2] + tl[1] - ta[2] <= 5758.63
 travel_time[1,3]: 5808 x[1,3] + tl[1] - ta[3] <= 5719.74
 travel_time[1,4]: 5808 x[1,4] + tl[1] - ta[4] <= 5808
 travel_time[1,5]: 5808 x[1,5] + tl[1] - ta[5] <= 5371.61
 travel_time[1,6]: 5808 x[1,6] + tl[1] - ta[6] <= 4917.09
 travel_time[1,7]: 5808 x[1,7] + tl[1] - ta[7] <= 5371.61
 travel_time[1,8]: 5808 x[1,8] + tl[1] - ta[8] <= 4827.83
 travel_time[1,9]: 5808 x[1,9] + tl[1] - ta[9] <= 5808
 travel_time[2,1]: 5808 x[2,1] + tl[2] - ta[1] <= 5763.04
 travel_time[2,2]: 5808 x[2,2] + tl[2] - ta[2] <= 5808
 travel_time[2,3]: 5808 x[2,3] + tl[2] - ta[3] <= 5680.1
 travel_time[2,4]: 5808 x[2,4] + tl[2] - ta[4] <= 5763.04
 travel_time[2,5]: 5808 x[2,5] + tl[2] - ta[5] <= 5423.8
 travel_time[2,6]: 5808 x[2,6] + tl[2] - ta[6] <= 4913.05
 travel_time[2,7]: 5808 x[2,7] + tl[2] - ta[7] <= 5423.8
 travel_time[2,8]: 5808 x[2,8] + tl[2] - ta[8] <= 4847.8
 travel_time[2,9]: 5808 x[2,9] + tl[2] - ta[9] <= 5808
 travel_time[3,1]: 5808 x[3,1] + tl[3] - ta[1] <= 5722
 travel_time[3,2]: 5808 x[3,2] + tl[3] - ta[2] <= 5682.69
 travel_time[3,3]: 5808 x[3,3] + tl[3] - ta[3] <= 5808
 travel_time[3,4]: 5808 x[3,4] + tl[3] - ta[4] <= 5722
 travel_time[3,5]: 5808 x[3,5] + tl[3] - ta[5] <= 5259.47
 travel_time[3,6]: 5808 x[3,6] + tl[3] - ta[6] <= 4862.24
 travel_time[3,7]: 5808 x[3,7] + tl[3] - ta[7] <= 5259.47
 travel_time[3,8]: 5808 x[3,8] + tl[3] - ta[8] <= 4796.99
 travel_time[3,9]: 5808 x[3,9] + tl[3] - ta[9] <= 5808
 travel_time[4,1]: 5808 x[4,1] + tl[4] - ta[1] <= 5808
 travel_time[4,2]: 5808 x[4,2] + tl[4] - ta[2] <= 5758.63
 travel_time[4,3]: 5808 x[4,3] + tl[4] - ta[3] <= 5719.74
 travel_time[4,4]: 5808 x[4,4] + tl[4] - ta[4] <= 5808
 travel_time[4,5]: 5808 x[4,5] + tl[4] - ta[5] <= 5371.61
 travel_time[4,6]: 5808 x[4,6] + tl[4] - ta[6] <= 4917.09
 travel_time[4,7]: 5808 x[4,7] + tl[4] - ta[7] <= 5371.61
 travel_time[4,8]: 5808 x[4,8] + tl[4] - ta[8] <= 4827.83
 travel_time[4,9]: 5808 x[4,9] + tl[4] - ta[9] <= 5808
 travel_time[5,1]: 5808 x[5,1] + tl[5] - ta[1] <= 2613.6
 travel_time[5,2]: 5808 x[5,2] + tl[5] - ta[2] <= 2613.6
 travel_time[5,3]: 5808 x[5,3] + tl[5] - ta[3] <= 2613.6
 travel_time[5,4]: 5808 x[5,4] + tl[5] - ta[4] <= 2613.6
 travel_time[5,5]: 5808 x[5,5] + tl[5] - ta[5] <= 5808
 travel_time[5,6]: 5808 x[5,6] + tl[5] - ta[6] <= 2613.6
 travel_time[5,7]: 5808 x[5,7] + tl[5] - ta[7] <= 5808
 travel_time[5,8]: 5808 x[5,8] + tl[5] - ta[8] <= 2613.6
 travel_time[5,9]: 5808 x[5,9] + tl[5] - ta[9] <= 5808
 travel_time[6,1]: 5808 x[6,1] + tl[6] - ta[1] <= 2613.6
 travel_time[6,2]: 5808 x[6,2] + tl[6] - ta[2] <= 2613.6
 travel_time[6,3]: 5808 x[6,3] + tl[6] - ta[3] <= 2613.6
 travel_time[6,4]: 5808 x[6,4] + tl[6] - ta[4] <= 2613.6
 travel_time[6,5]: 5808 x[6,5] + tl[6] - ta[5] <= 2613.6
 travel_time[6,6]: 5808 x[6,6] + tl[6] - ta[6] <= 5808
 travel_time[6,7]: 5808 x[6,7] + tl[6] - ta[7] <= 2613.6
 travel_time[6,8]: 5808 x[6,8] + tl[6] - ta[8] <= 5731.01
 travel_time[6,9]: 5808 x[6,9] + tl[6] - ta[9] <= 5808
 travel_time[7,1]: 5808 x[7,1] + tl[7] - ta[1] <= 2613.6
 travel_time[7,2]: 5808 x[7,2] + tl[7] - ta[2] <= 2613.6
 travel_time[7,3]: 5808 x[7,3] + tl[7] - ta[3] <= 2613.6
 travel_time[7,4]: 5808 x[7,4] + tl[7] - ta[4] <= 2613.6
 travel_time[7,5]: 5808 x[7,5] + tl[7] - ta[5] <= 5808
 travel_time[7,6]: 5808 x[7,6] + tl[7] - ta[6] <= 2613.6
 travel_time[7,7]: 5808 x[7,7] + tl[7] - ta[7] <= 5808
 travel_time[7,8]: 5808 x[7,8] + tl[7] - ta[8] <= 2613.6
 travel_time[7,9]: 5808 x[7,9] + tl[7] - ta[9] <= 5808
 travel_time[8,1]: 5808 x[8,1] + tl[8] - ta[1] <= 4833.51
 travel_time[8,2]: 5808 x[8,2] + tl[8] - ta[2] <= 4847.52
 travel_time[8,3]: 5808 x[8,3] + tl[8] - ta[3] <= 4802.27
 travel_time[8,4]: 5808 x[8,4] + tl[8] - ta[4] <= 4833.51
 travel_time[8,5]: 5808 x[8,5] + tl[8] - ta[5] <= 2613.6
 travel_time[8,6]: 5808 x[8,6] + tl[8] - ta[6] <= 5737.21
 travel_time[8,7]: 5808 x[8,7] + tl[8] - ta[7] <= 2613.6
 travel_time[8,8]: 5808 x[8,8] + tl[8] - ta[8] <= 5808
 travel_time[8,9]: 5808 x[8,9] + tl[8] - ta[9] <= 5808
 precedence_const[0]: 5808 x[1,0] + 5808 x[1,1] + 5808 x[1,2] + 5808 x[1,3]
   + 5808 x[1,4] + 5808 x[1,5] + 5808 x[1,6] + 5808 x[1,7] + 5808 x[1,8]
   + 5808 x[1,9] + tl[1] - ta[5] <= 5371.61
 precedence_const[1]: 5808 x[2,0] + 5808 x[2,1] + 5808 x[2,2] + 5808 x[2,3]
   + 5808 x[2,4] + 5808 x[2,5] + 5808 x[2,6] + 5808 x[2,7] + 5808 x[2,8]
   + 5808 x[2,9] + tl[2] - ta[6] <= 4913.05
 precedence_const[2]: 5808 x[3,0] + 5808 x[3,1] + 5808 x[3,2] + 5808 x[3,3]
   + 5808 x[3,4] + 5808 x[3,5] + 5808 x[3,6] + 5808 x[3,7] + 5808 x[3,8]
   + 5808 x[3,9] + tl[3] - ta[7] <= 5259.47
 precedence_const[3]: 5808 x[4,0] + 5808 x[4,1] + 5808 x[4,2] + 5808 x[4,3]
   + 5808 x[4,4] + 5808 x[4,5] + 5808 x[4,6] + 5808 x[4,7] + 5808 x[4,8]
   + 5808 x[4,9] + tl[4] - ta[8] <= 4827.83
 subtour_elimination[0,1]: 10 x[0,1] + u[0] - u[1] <= 9
 subtour_elimination[0,2]: 10 x[0,2] + u[0] - u[2] <= 9
 subtour_elimination[0,3]: 10 x[0,3] + u[0] - u[3] <= 9
 subtour_elimination[0,4]: 10 x[0,4] + u[0] - u[4] <= 9
 subtour_elimination[0,5]: 10 x[0,5] + u[0] - u[5] <= 9
 subtour_elimination[0,6]: 10 x[0,6] + u[0] - u[6] <= 9
 subtour_elimination[0,7]: 10 x[0,7] + u[0] - u[7] <= 9
 subtour_elimination[0,8]: 10 x[0,8] + u[0] - u[8] <= 9
 subtour_elimination[0,9]: 10 x[0,9] + u[0] - u[9] <= 9
 subtour_elimination[1,0]: 10 x[1,0] - u[0] + u[1] <= 9
 subtour_elimination[1,2]: 10 x[1,2] + u[1] - u[2] <= 9
 subtour_elimination[1,3]: 10 x[1,3] + u[1] - u[3] <= 9
 subtour_elimination[1,4]: 10 x[1,4] + u[1] - u[4] <= 9
 subtour_elimination[1,5]: 10 x[1,5] + u[1] - u[5] <= 9
 subtour_elimination[1,6]: 10 x[1,6] + u[1] - u[6] <= 9
 subtour_elimination[1,7]: 10 x[1,7] + u[1] - u[7] <= 9
 subtour_elimination[1,8]: 10 x[1,8] + u[1] - u[8] <= 9
 subtour_elimination[1,9]: 10 x[1,9] + u[1] - u[9] <= 9
 subtour_elimination[2,0]: 10 x[2,0] - u[0] + u[2] <= 9
 subtour_elimination[2,1]: 10 x[2,1] - u[1] + u[2] <= 9
 subtour_elimination[2,3]: 10 x[2,3] + u[2] - u[3] <= 9
 subtour_elimination[2,4]: 10 x[2,4] + u[2] - u[4] <= 9
 subtour_elimination[2,5]: 10 x[2,5] + u[2] - u[5] <= 9
 subtour_elimination[2,6]: 10 x[2,6] + u[2] - u[6] <= 9
 subtour_elimination[2,7]: 10 x[2,7] + u[2] - u[7] <= 9
 subtour_elimination[2,8]: 10 x[2,8] + u[2] - u[8] <= 9
 subtour_elimination[2,9]: 10 x[2,9] + u[2] - u[9] <= 9
 subtour_elimination[3,0]: 10 x[3,0] - u[0] + u[3] <= 9
 subtour_elimination[3,1]: 10 x[3,1] - u[1] + u[3] <= 9
 subtour_elimination[3,2]: 10 x[3,2] - u[2] + u[3] <= 9
 subtour_elimination[3,4]: 10 x[3,4] + u[3] - u[4] <= 9
 subtour_elimination[3,5]: 10 x[3,5] + u[3] - u[5] <= 9
 subtour_elimination[3,6]: 10 x[3,6] + u[3] - u[6] <= 9
 subtour_elimination[3,7]: 10 x[3,7] + u[3] - u[7] <= 9
 subtour_elimination[3,8]: 10 x[3,8] + u[3] - u[8] <= 9
 subtour_elimination[3,9]: 10 x[3,9] + u[3] - u[9] <= 9
 subtour_elimination[4,0]: 10 x[4,0] - u[0] + u[4] <= 9
 subtour_elimination[4,1]: 10 x[4,1] - u[1] + u[4] <= 9
 subtour_elimination[4,2]: 10 x[4,2] - u[2] + u[4] <= 9
 subtour_elimination[4,3]: 10 x[4,3] - u[3] + u[4] <= 9
 subtour_elimination[4,5]: 10 x[4,5] + u[4] - u[5] <= 9
 subtour_elimination[4,6]: 10 x[4,6] + u[4] - u[6] <= 9
 subtour_elimination[4,7]: 10 x[4,7] + u[4] - u[7] <= 9
 subtour_elimination[4,8]: 10 x[4,8] + u[4] - u[8] <= 9
 subtour_elimination[4,9]: 10 x[4,9] + u[4] - u[9] <= 9
 subtour_elimination[5,0]: 10 x[5,0] - u[0] + u[5] <= 9
 subtour_elimination[5,1]: 10 x[5,1] - u[1] + u[5] <= 9
 subtour_elimination[5,2]: 10 x[5,2] - u[2] + u[5] <= 9
 subtour_elimination[5,3]: 10 x[5,3] - u[3] + u[5] <= 9
 subtour_elimination[5,4]: 10 x[5,4] - u[4] + u[5] <= 9
 subtour_elimination[5,6]: 10 x[5,6] + u[5] - u[6] <= 9
 subtour_elimination[5,7]: 10 x[5,7] + u[5] - u[7] <= 9
 subtour_elimination[5,8]: 10 x[5,8] + u[5] - u[8] <= 9
 subtour_elimination[5,9]: 10 x[5,9] + u[5] - u[9] <= 9
 subtour_elimination[6,0]: 10 x[6,0] - u[0] + u[6] <= 9
 subtour_elimination[6,1]: 10 x[6,1] - u[1] + u[6] <= 9
 subtour_elimination[6,2]: 10 x[6,2] - u[2] + u[6] <= 9
 subtour_elimination[6,3]: 10 x[6,3] - u[3] + u[6] <= 9
 subtour_elimination[6,4]: 10 x[6,4] - u[4] + u[6] <= 9
 subtour_elimination[6,5]: 10 x[6,5] - u[5] + u[6] <= 9
 subtour_elimination[6,7]: 10 x[6,7] + u[6] - u[7] <= 9
 subtour_elimination[6,8]: 10 x[6,8] + u[6] - u[8] <= 9
 subtour_elimination[6,9]: 10 x[6,9] + u[6] - u[9] <= 9
 subtour_elimination[7,0]: 10 x[7,0] - u[0] + u[7] <= 9
 subtour_elimination[7,1]: 10 x[7,1] - u[1] + u[7] <= 9
 subtour_elimination[7,2]: 10 x[7,2] - u[2] + u[7] <= 9
 subtour_elimination[7,3]: 10 x[7,3] - u[3] + u[7] <= 9
 subtour_elimination[7,4]: 10 x[7,4] - u[4] + u[7] <= 9
 subtour_elimination[7,5]: 10 x[7,5] - u[5] + u[7] <= 9
 subtour_elimination[7,6]: 10 x[7,6] - u[6] + u[7] <= 9
 subtour_elimination[7,8]: 10 x[7,8] + u[7] - u[8] <= 9
 subtour_elimination[7,9]: 10 x[7,9] + u[7] - u[9] <= 9
 subtour_elimination[8,0]: 10 x[8,0] - u[0] + u[8] <= 9
 subtour_elimination[8,1]: 10 x[8,1] - u[1] + u[8] <= 9
 subtour_elimination[8,2]: 10 x[8,2] - u[2] + u[8] <= 9
 subtour_elimination[8,3]: 10 x[8,3] - u[3] + u[8] <= 9
 subtour_elimination[8,4]: 10 x[8,4] - u[4] + u[8] <= 9
 subtour_elimination[8,5]: 10 x[8,5] - u[5] + u[8] <= 9
 subtour_elimination[8,6]: 10 x[8,6] - u[6] + u[8] <= 9
 subtour_elimination[8,7]: 10 x[8,7] - u[7] + u[8] <= 9
 subtour_elimination[8,9]: 10 x[8,9] + u[8] - u[9] <= 9
 subtour_elimination[9,0]: 10 x[9,0] - u[0] + u[9] <= 9
 subtour_elimination[9,1]: 10 x[9,1] - u[1] + u[9] <= 9
 subtour_elimination[9,2]: 10 x[9,2] - u[2] + u[9] <= 9
 subtour_elimination[9,3]: 10 x[9,3] - u[3] + u[9] <= 9
 subtour_elimination[9,4]: 10 x[9,4] - u[4] + u[9] <= 9
 subtour_elimination[9,5]: 10 x[9,5] - u[5] + u[9] <= 9
 subtour_elimination[9,6]: 10 x[9,6] - u[6] + u[9] <= 9
 subtour_elimination[9,7]: 10 x[9,7] - u[7] + u[9] <= 9
 subtour_elimination[9,8]: 10 x[9,8] - u[8] + u[9] <= 9
Bounds
 q[0] <= 13500
 q[1] <= 14600
 q[2] <= 9000
 q[3] <= 20000
 l[0] <= 52000
 l[1] <= 52000
 l[2] <= 52000
 l[3] <= 52000
 l[4] <= 52000
 l[5] <= 52000
 l[6] <= 52000
 l[7] <= 52000
 l[8] <= 52000
 l[9] <= 52000
Binaries
 x[0,0] x[0,1] x[0,2] x[0,3] x[0,4] x[0,5] x[0,6] x[0,7] x[0,8] x[0,9]
 x[1,0] x[1,1] x[1,2] x[1,3] x[1,4] x[1,5] x[1,6] x[1,7] x[1,8] x[1,9]
 x[2,0] x[2,1] x[2,2] x[2,3] x[2,4] x[2,5] x[2,6] x[2,7] x[2,8] x[2,9]
 x[3,0] x[3,1] x[3,2] x[3,3] x[3,4] x[3,5] x[3,6] x[3,7] x[3,8] x[3,9]
 x[4,0] x[4,1] x[4,2] x[4,3] x[4,4] x[4,5] x[4,6] x[4,7] x[4,8] x[4,9]
 x[5,0] x[5,1] x[5,2] x[5,3] x[5,4] x[5,5] x[5,6] x[5,7] x[5,8] x[5,9]
 x[6,0] x[6,1] x[6,2] x[6,3] x[6,4] x[6,5] x[6,6] x[6,7] x[6,8] x[6,9]
 x[7,0] x[7,1] x[7,2] x[7,3] x[7,4] x[7,5] x[7,6] x[7,7] x[7,8] x[7,9]
 x[8,0] x[8,1] x[8,2] x[8,3] x[8,4] x[8,5] x[8,6] x[8,7] x[8,8] x[8,9]
 x[9,0] x[9,1] x[9,2] x[9,3] x[9,4] x[9,5] x[9,6] x[9,7] x[9,8] x[9,9]
End
